
Gurobi 12.0.2 (win64) logging started Wed Nov 26 14:32:48 2025

Set parameter LogFile to value "resultados DATA_1_n10m10b2d2\instancia_3_log.txt"
Set parameter TimeLimit to value 3600
Gurobi Optimizer version 12.0.2 build v12.0.2rc0 (win64 - Windows 10.0 (19045.2))

CPU model: Intel(R) Core(TM) i5-6300U CPU @ 2.40GHz, instruction set [SSE2|AVX|AVX2]
Thread count: 2 physical cores, 4 logical processors, using up to 4 threads

Non-default parameters:
TimeLimit  3600

Optimize a model with 522 rows, 2200 columns and 82166 nonzeros
Model fingerprint: 0x89bb1e98
Variable types: 0 continuous, 2200 integer (2200 binary)
Coefficient statistics:
  Matrix range     [1e+00, 1e+00]
  Objective range  [2e-02, 1e-01]
  Bounds range     [1e+00, 1e+00]
  RHS range        [1e+00, 2e+01]
Found heuristic solution: objective 0.7980000
Presolve removed 1 rows and 920 columns
Presolve time: 0.19s
Presolved: 521 rows, 1280 columns, 42588 nonzeros
Found heuristic solution: objective 0.3600000
Variable types: 0 continuous, 1280 integer (1280 binary)

Root relaxation: objective 9.980000e-01, 6379 iterations, 1.96 seconds (1.39 work units)
Total elapsed time = 5.05s (DegenMoves)

    Nodes    |    Current Node    |     Objective Bounds      |     Work
 Expl Unexpl |  Obj  Depth IntInf | Incumbent    BestBd   Gap | It/Node Time

     0     0    0.99800    0  118    0.79800    0.99800  25.1%     -    5s
H    0     0                       0.8100000    0.99800  23.2%     -    5s
H    0     0                       0.9600000    0.99800  3.96%     -    5s
H    0     0                       0.9800000    0.99800  1.84%     -    5s
     0     0    0.99800    0  190    0.98000    0.99800  1.84%     -    5s
     0     0    0.99800    0  161    0.98000    0.99800  1.84%     -    6s
     0     0    0.99800    0  107    0.98000    0.99800  1.84%     -    9s
H    0     0                       0.9920000    0.99800  0.60%     -    9s
     0     0    0.99800    0  134    0.99200    0.99800  0.60%     -   11s
     0     0    0.99800    0  123    0.99200    0.99800  0.60%     -   12s
     0     0    0.99800    0  128    0.99200    0.99800  0.60%     -   13s
     0     0    0.99800    0  128    0.99200    0.99800  0.60%     -   14s
     0     2    0.99800    0  128    0.99200    0.99800  0.60%     -   16s
    19    13    0.99494    7  208    0.99200    0.99800  0.60%  1069   20s

Cutting planes:
  Zero half: 6

Explored 101 nodes (81919 simplex iterations) in 24.02 seconds (25.60 work units)
Thread count was 4 (of 4 available processors)

Solution count 6: 0.992 0.98 0.96 ... 0.36
No other solutions better than 0.992

Optimal solution found (tolerance 1.00e-04)
Best objective 9.920000000000e-01, best bound 9.920000000000e-01, gap 0.0000%
